10
0, 515, 707, 793, 377, 423, 387, 576, 825, 859
515, 0, 393, 400, 320, 216, 326, 489, 334, 590
707, 393, 0, 126, 686, 295, 324, 880, 584, 964
793, 400, 126, 0, 715, 370, 426, 886, 513, 928
377, 320, 686, 715, 0, 417, 478, 232, 520, 483
423, 216, 295, 370, 417, 0, 112, 635, 537, 791
387, 326, 324, 426, 478, 112, 0, 706, 649, 888
576, 489, 880, 886, 232, 635, 706, 0, 552, 310
825, 334, 584, 513, 520, 537, 649, 552, 0, 455
859, 590, 964, 928, 483, 791, 888, 310, 455, 0
